Name: Export_DOT1_2025-2026_HK1
Courses: 216
Rooms: 201
Days: 5
Periods_per_day: 5
Curricula: 48
Constraints: 0


COURSES:
c0000 GV001 1 1 80
c0001 GV003 1 1 40
c0002 GV009 1 1 40
c0003 GV001 1 1 80
c0004 GV003 1 1 40
c0005 GV009 1 1 40
c0006 GV005 1 1 80
c0007 GV006 1 1 40
c0008 GV010 1 1 40
c0009 GV005 1 1 80
c0010 GV006 1 1 40
c0011 GV010 1 1 40
c0012 GV016 1 1 80
c0013 GV016 1 1 40
c0014 GV005 1 1 40
c0015 GV006 1 1 80
c0016 GV016 1 1 40
c0017 GV005 1 1 40
c0018 GV030 1 1 80
c0019 GV030 1 1 40
c0020 GV001 1 1 40
c0021 GV030 1 1 80
c0022 GV001 1 1 40
c0023 GV030 1 1 40
c0024 GV024 1 1 40
c0025 GV024 1 1 40
c0026 GV004 1 1 40
c0027 GV021 1 1 40
c0028 GV011 1 1 80
c0029 GV004 1 1 40
c0030 GV011 1 1 40
c0031 GV003 1 1 80
c0032 GV004 1 1 40
c0033 GV011 1 1 40
c0034 GV023 1 1 80
c0035 GV023 1 1 40
c0036 GV023 1 1 40
c0037 GV003 1 1 80
c0038 GV004 1 1 40
c0039 GV023 1 1 40
c0040 GV025 1 1 40
c0041 GV021 1 1 40
c0042 GV025 1 1 40
c0043 GV021 1 1 40
c0044 GV025 1 1 40
c0045 GV021 1 1 40
c0046 GV015 1 1 80
c0047 GV017 1 1 40
c0048 GV031 1 1 40
c0049 GV015 1 1 80
c0050 GV017 1 1 40
c0051 GV031 1 1 40
c0052 GV015 1 1 80
c0053 GV017 1 1 40
c0054 GV031 1 1 40
c0055 GV015 1 1 80
c0056 GV017 1 1 40
c0057 GV031 1 1 40
c0058 GV020 1 1 40
c0059 GV020 1 1 40
c0060 GV020 1 1 40
c0061 GV006 1 1 40
c0062 GV020 1 1 40
c0063 GV005 1 1 40
c0064 GV040 1 1 40
c0065 GV043 1 1 40
c0066 GV045 1 1 40
c0067 GV040 1 1 40
c0068 GV043 1 1 40
c0069 GV045 1 1 40
c0070 GV013 1 1 40
c0071 GV047 1 1 40
c0072 GV013 1 1 40
c0073 GV047 1 1 40
c0074 GV013 1 1 40
c0075 GV047 1 1 40
c0076 GV037 1 1 40
c0077 GV037 1 1 40
c0078 GV037 1 1 40
c0079 GV037 1 1 40
c0080 GV001 1 1 40
c0081 GV003 1 1 40
c0082 GV044 1 1 40
c0083 GV044 1 1 40
c0084 GV011 1 1 80
c0085 GV011 1 1 40
c0086 GV001 1 1 40
c0087 GV003 1 1 80
c0088 GV011 1 1 40
c0089 GV001 1 1 40
c0090 GV009 1 1 80
c0091 GV009 1 1 40
c0092 GV009 1 1 40
c0093 GV009 1 1 80
c0094 GV003 1 1 40
c0095 GV009 1 1 40
c0096 GV007 1 1 40
c0097 GV008 1 1 40
c0098 GV008 1 1 40
c0099 GV008 1 1 40
c0100 GV037 1 1 40
c0101 GV037 1 1 40
c0102 GV037 1 1 40
c0103 GV001 1 1 40
c0104 GV003 1 1 40
c0105 GV037 1 1 40
c0106 GV038 1 1 40
c0107 GV007 1 1 40
c0108 GV033 1 1 40
c0109 GV036 1 1 40
c0110 GV001 1 1 40
c0111 GV003 1 1 40
c0112 GV037 1 1 40
c0113 GV001 1 1 40
c0114 GV003 1 1 40
c0115 GV037 1 1 40
c0116 GV041 1 1 40
c0117 GV041 1 1 40
c0118 GV041 1 1 40
c0119 GV013 1 1 40
c0120 GV041 1 1 40
c0121 GV047 1 1 40
c0122 GV004 1 1 40
c0123 GV021 1 1 40
c0124 GV006 1 1 40
c0125 GV020 1 1 40
c0126 GV005 1 1 40
c0127 GV006 1 1 40
c0128 GV020 1 1 40
c0129 GV005 1 1 40
c0130 GV014 1 1 40
c0131 GV014 1 1 40
c0132 GV014 1 1 40
c0133 GV014 1 1 40
c0134 GV014 1 1 40
c0135 GV047 1 1 40
c0136 GV012 1 1 40
c0137 GV048 1 1 40
c0138 GV012 1 1 40
c0139 GV048 1 1 40
c0140 GV012 1 1 40
c0141 GV048 1 1 40
c0142 GV013 1 1 40
c0143 GV017 1 1 40
c0144 GV002 1 1 80
c0145 GV002 1 1 40
c0146 GV002 1 1 40
c0147 GV002 1 1 80
c0148 GV002 1 1 40
c0149 GV002 1 1 40
c0150 GV033 1 1 40
c0151 GV033 1 1 40
c0152 GV035 1 1 40
c0153 GV035 1 1 40
c0154 GV043 1 1 40
c0155 GV045 1 1 40
c0156 GV004 1 1 80
c0157 GV004 1 1 40
c0158 GV004 1 1 40
c0159 GV004 1 1 80
c0160 GV004 1 1 40
c0161 GV001 1 1 40
c0162 GV003 1 1 40
c0163 GV004 1 1 40
c0164 GV004 1 1 40
c0165 GV004 1 1 40
c0166 GV004 1 1 40
c0167 GV004 1 1 40
c0168 GV047 1 1 40
c0169 GV047 1 1 40
c0170 GV047 1 1 40
c0171 GV047 1 1 40
c0172 GV047 1 1 40
c0173 GV047 1 1 40
c0174 GV040 1 1 40
c0175 GV040 1 1 40
c0176 GV040 1 1 40
c0177 GV040 1 1 40
c0178 GV040 1 1 40
c0179 GV005 1 1 40
c0180 GV024 1 1 40
c0181 GV024 1 1 40
c0182 GV024 1 1 40
c0183 GV024 1 1 40
c0184 GV006 1 1 40
c0185 GV024 1 1 40
c0186 GV024 1 1 40
c0187 GV024 1 1 40
c0188 GV024 1 1 40
c0189 GV024 1 1 40
c0190 GV024 1 1 40
c0191 GV024 1 1 40
c0192 GV035 1 1 40
c0193 GV033 1 1 40
c0194 GV033 1 1 40
c0195 GV041 1 1 40
c0196 GV015 1 1 40
c0197 GV013 1 1 40
c0198 GV013 1 1 40
c0199 GV013 1 1 40
c0200 GV013 1 1 40
c0201 GV013 1 1 40
c0202 GV013 1 1 40
c0203 GV013 1 1 40
c0204 GV013 1 1 40
c0205 GV013 1 1 40
c0206 GV035 1 1 40
c0207 GV043 1 1 40
c0208 GV038 1 1 40
c0209 GV007 1 1 40
c0210 GV038 1 1 40
c0211 GV007 1 1 40
c0212 GV008 1 1 40
c0213 GV038 1 1 40
c0214 GV007 1 1 40
c0215 GV035 1 1 40

ROOMS:
A401 40
A402 40
A403 40
A404 40
A405 40
A406 40
A407 40
A408 40
A409 40
A501 40
A502 40
A503 40
A504 40
A505 40
A506 40
A507 40
A508 40
A509 40
A601 40
A602 40
A603 40
A604 40
A605 40
A606 40
A607 40
A608 40
A609 40
A701 40
A702 40
A703 40
A704 40
A705 40
A706 40
A707 40
A708 40
A709 40
B201 90
B202 45
B203 45
B204 45
B205 45
B206 90
B207 90
B208 90
B209 90
B210 45
B211 45
B301 90
B302 45
B303 45
B304 45
B305 45
B306 90
B307 90
B308 90
B309 90
B310 45
B311 45
B401 90
B402 45
B403 45
B404 45
B405 45
B406 90
B407 90
B408 90
B409 90
B410 45
B411 45
C201 90
C202 45
C203 45
C204 45
C205 45
C206 90
C207 90
C208 45
C209 90
C210 45
C211 45
C301 90
C302 45
C303 45
C304 45
C305 45
C306 90
C307 90
C308 45
C309 90
C310 45
C311 45
C401 90
C402 45
C403 45
C404 45
C405 45
C406 90
C407 90
C408 45
C409 90
C410 45
C411 45
D101 90
D102 45
D103 45
D104 45
D105 45
D106 90
D107 90
D108 90
D109 90
D110 45
D111 45
D201 90
D202 45
D203 45
D204 45
D205 45
D206 90
D207 90
D208 90
D209 90
D210 45
D211 45
D301 90
D302 45
D303 45
D304 45
D305 45
D306 90
D307 90
D308 90
D309 90
D310 45
D311 45
D401 90
D402 45
D403 45
D404 45
D405 45
D406 90
D407 90
D408 90
D409 90
D410 45
D411 45
F301 90
F302 45
F303 45
F304 45
F305 45
F306 90
F307 90
F308 90
F309 90
F310 45
F311 45
F401 90
F402 45
F403 45
F404 45
F405 45
F406 90
F407 90
F408 90
F409 90
F410 45
F411 45
F501 90
F502 45
F503 45
F504 45
F505 45
F506 90
F507 90
F508 90
F509 90
F510 45
F511 45
F601 90
F602 45
F603 45
F604 45
F605 45
F606 90
F607 90
F608 90
F609 90
F610 45
F611 45
F701 90
F702 45
F703 45
F704 45
F705 45
F706 90
F707 90
F708 90
F709 90
F710 45
F711 45

CURRICULA:
q000 6 c0000 c0001 c0002 c0003 c0004 c0005
q001 6 c0006 c0007 c0008 c0009 c0010 c0011
q002 6 c0012 c0013 c0014 c0015 c0016 c0017
q003 6 c0018 c0019 c0020 c0021 c0022 c0023
q004 2 c0024 c0025
q005 2 c0026 c0027
q006 6 c0028 c0029 c0030 c0031 c0032 c0033
q007 6 c0034 c0035 c0036 c0037 c0038 c0039
q008 6 c0040 c0041 c0042 c0043 c0044 c0045
q009 6 c0046 c0047 c0048 c0049 c0050 c0051
q010 6 c0052 c0053 c0054 c0055 c0056 c0057
q011 6 c0058 c0059 c0060 c0061 c0062 c0063
q012 6 c0064 c0065 c0066 c0067 c0068 c0069
q013 6 c0070 c0071 c0072 c0073 c0074 c0075
q014 6 c0076 c0077 c0078 c0079 c0080 c0081
q015 2 c0082 c0083
q016 6 c0084 c0085 c0086 c0087 c0088 c0089
q017 6 c0090 c0091 c0092 c0093 c0094 c0095
q018 2 c0096 c0097
q019 2 c0098 c0099
q020 6 c0100 c0101 c0102 c0103 c0104 c0105
q021 2 c0106 c0107
q022 2 c0108 c0109
q023 6 c0110 c0111 c0112 c0113 c0114 c0115
q024 6 c0116 c0117 c0118 c0119 c0120 c0121
q025 2 c0122 c0123
q026 6 c0124 c0125 c0126 c0127 c0128 c0129
q027 6 c0130 c0131 c0132 c0133 c0134 c0135
q028 6 c0136 c0137 c0138 c0139 c0140 c0141
q029 2 c0142 c0143
q030 6 c0144 c0145 c0146 c0147 c0148 c0149
q031 2 c0150 c0151
q032 2 c0152 c0153
q033 2 c0154 c0155
q034 6 c0156 c0157 c0158 c0159 c0160 c0161
q035 6 c0162 c0163 c0164 c0165 c0166 c0167
q036 6 c0168 c0169 c0170 c0171 c0172 c0173
q037 6 c0174 c0175 c0176 c0177 c0178 c0179
q038 6 c0180 c0181 c0182 c0183 c0184 c0185
q039 6 c0186 c0187 c0188 c0189 c0190 c0191
q040 2 c0192 c0193
q041 2 c0194 c0195
q042 2 c0196 c0197
q043 6 c0198 c0199 c0200 c0201 c0202 c0203
q044 2 c0204 c0205
q045 2 c0206 c0207
q046 6 c0208 c0209 c0210 c0211 c0212 c0213
q047 2 c0214 c0215

UNAVAILABILITY_CONSTRAINTS:

END.
